c Random generated cnf formula, satisfiable: false
p cnf 10 50
-2 1 9 0
-4 -10 -9 0
-6 -9 -7 0
-1 -3 4 0
4 7 8 0
9 -5 10 0
-3 1 4 0
8 1 4 0
3 1 10 0
3 1 7 0
7 1 -4 0
-5 -6 10 0
-8 1 10 0
-3 5 -4 0
2 6 -10 0
-4 8 -3 0
-10 -2 -7 0
6 -4 -2 0
5 -4 -2 0
2 -8 -6 0
-8 -9 -3 0
-1 -10 4 0
8 9 6 0
10 3 4 0
-1 2 5 0
-5 -10 9 0
3 10 -5 0
-3 -10 7 0
-9 -10 -6 0
6 -5 1 0
1 -2 3 0
10 -1 8 0
7 3 -10 0
-3 -7 8 0
-5 -3 8 0
-5 9 8 0
-2 10 -8 0
2 -10 7 0
7 -4 3 0
2 6 10 0
4 2 -3 0
-3 4 2 0
3 1 8 0
9 3 4 0
-8 -7 4 0
-1 -10 -8 0
-8 4 -1 0
-8 10 7 0
-3 1 5 0
-7 -1 3 0
